120
150
72
62
48
59
26
81
82
77
27
82
86
87
50
93
93
42
84
47
44
64
87
46
37
27
45
20
23
66
60
43
58
48
32
85
87
76
72
100
66
63
53
44
60
96
56
62
23
95
61
70
86
78
43
36
93
79
69
98
65
45
90
31
97
66
75
74
80
98
68
32
88
31
78
41
57
45
36
82
26
78
44
92
78
53
38
55
56
26
98
32
67
90
22
24
41
31
97
35
39
42
72
56
85
34
75
51
22
96
99
35
37
94
59
45
99
47
41
53
67
74
